25
1 0 10
2 1 1
3 2 3
4 0 2
4 2 5
5 1 3
5 2 2
5 3 4
6 0 10
6 1 3
6 2 2
6 3 10
6 5 5
7 3 3
8 0 9
8 2 8
8 5 10
8 6 6
8 7 1
9 0 5
9 1 3
9 2 6
9 6 1
9 8 7
10 1 3
10 2 6
10 3 5
10 4 5
10 5 3
10 7 3
11 0 6
11 4 8
11 10 3
12 3 10
12 4 1
12 8 2
12 9 9
13 2 5
13 3 1
13 4 3
13 10 2
13 11 8
13 12 4
14 2 3
14 5 7
14 10 6
14 11 9
14 13 7
15 4 8
15 6 4
15 8 3
15 9 5
15 10 4
15 13 6
16 0 8
16 1 8
16 6 6
16 9 3
16 12 9
16 14 7
17 0 9
17 1 9
17 2 6
17 3 3
17 5 8
17 9 5
17 10 7
17 14 9
17 16 8
18 0 9
18 1 2
18 2 5
18 3 6
18 5 5
18 6 7
18 9 9
18 11 3
18 13 7
18 14 1
18 17 3
19 1 4
19 2 5
19 5 4
19 7 8
19 8 7
19 10 6
19 11 4
19 12 3
19 15 5
19 17 10
19 18 2
20 0 5
20 1 7
20 2 3
20 3 6
20 5 7
20 6 7
20 8 5
20 11 1
20 13 2
20 16 1
20 17 4
20 19 4
21 5 3
21 6 1
21 7 10
21 8 1
21 9 10
21 11 10
21 13 3
21 15 9
21 19 10
21 20 8
22 0 10
22 1 8
22 2 1
22 3 3
22 4 2
22 6 5
22 7 6
22 10 2
22 12 3
22 13 1
22 14 10
22 15 6
22 19 1
22 21 4
23 0 9
23 1 9
23 2 6
23 3 6
23 4 8
23 6 2
23 7 6
23 10 5
23 15 5
23 22 8
24 0 8
24 5 7
24 6 8
24 7 2
24 8 1
24 9 10
24 10 3
24 11 6
24 14 2
24 16 7
24 18 3
24 20 2
24 22 1
24 23 8
